p edge 25 90
e 1 5
e 1 9
e 1 14
e 1 18
e 1 21
e 1 23
e 1 25
e 2 4
e 2 14
e 2 17
e 2 19
e 2 20
e 3 5
e 3 10
e 3 15
e 3 18
e 3 19
e 3 21
e 3 23
e 3 24
e 3 25
e 4 6
e 4 9
e 4 10
e 4 11
e 4 14
e 4 16
e 4 18
e 4 23
e 4 24
e 5 8
e 5 9
e 5 13
e 5 19
e 5 25
e 6 12
e 6 15
e 6 17
e 6 24
e 6 25
e 7 8
e 7 9
e 8 15
e 8 18
e 8 25
e 9 15
e 9 19
e 9 21
e 9 22
e 9 24
e 9 25
e 10 11
e 10 16
e 10 21
e 10 22
e 11 13
e 11 15
e 11 17
e 11 19
e 11 23
e 12 15
e 12 18
e 12 20
e 12 25
e 13 14
e 13 15
e 13 22
e 13 25
e 14 15
e 14 16
e 14 19
e 14 22
e 14 25
e 15 18
e 15 21
e 15 23
e 16 18
e 16 22
e 16 24
e 17 18
e 17 19
e 17 21
e 18 20
e 18 25
e 19 21
e 19 22
e 19 24
e 21 25
e 22 24
e 23 24
